n = 30;
T = 360;
p = [8 ,5 ,14 ,2 ,5 ,7 ,3 ,3 ,16 ,2 ,3 ,3 ,3 ,10 ,18 ,23 ,8 ,1 ,13 ,3 ,3 ,7 ,25 ,1 ,1 ,5 ,13 ,1 ,1 ,10];
r = [1 ,14 ,26 ,4 ,4 ,39 ,53 ,66 ,55 ,94 ,76 ,78 ,5 ,71 ,54 ,117 ,40 ,203 ,69 ,84 ,98 ,10 ,0 ,88 ,204 ,103 ,281 ,31 ,246 ,139];
d = [313 ,296 ,99 ,106 ,190 ,109 ,267 ,174 ,267 ,141 ,351 ,335 ,304 ,231 ,358 ,320 ,291 ,273 ,250 ,280 ,327 ,264 ,352 ,317 ,351 ,314 ,347 ,334 ,331 ,342];
